SAT
144 -137 -5 -118 -16 31 135 23 -149 -77 68 72 -44 40 -30 81 -46 71 13 107 94 -4 -141 -47 115 -52 -101 -91 -83 35 -51 -19 -103 -84 -69 -111 121 -109 -12 58 3 -34 -15 -70 119 -45 74 -53 -96 -93 56 -6 -130 -67 134 -145 42 -89 99 -36 59 -20 147 -10 143 120 114 -127 39 -148 -110 132 -131 100 -57 -122 102 2 112 -27 -28 117 33 78 108 -54 61 -73 90 -136 113 140 37 -66 -8 124 80 22 -129 76 -29 -88 92 7 41 116 -82 21 62 -75 -139 -50 138 150 26 9 38 49 98 -95 125 -97 86 -24 -65 -85 60 -32 18 -142 128 -64 1 -79 -146 -55 48 14 -106 104 -126 43 -87 -11 -105 -133 -63 17 -123 25 0
